; PUSH 0x00 AND NOT NOT DUP2 EQ => POP DUP1 ISZERO
(set-option :produce-proofs true)
; 
(set-info :status unknown)
(declare-fun storage_t ((_ BitVec 256) (_ BitVec 256) Int (_ BitVec 256)) (_ BitVec 256))
(declare-fun storage_s ((_ BitVec 256) (_ BitVec 256) Int (_ BitVec 256)) (_ BitVec 256))
(declare-fun exc_halt_t (Int) Bool)
(declare-fun exc_halt_s (Int) Bool)
(declare-fun sc_t (Int) (_ BitVec 6))
(declare-fun stack_t ((_ BitVec 256) (_ BitVec 256) Int (_ BitVec 6)) (_ BitVec 256))
(declare-fun stack_s ((_ BitVec 256) (_ BitVec 256) Int (_ BitVec 6)) (_ BitVec 256))
(declare-fun sc_s (Int) (_ BitVec 6))
(declare-fun used_gas_t ((_ BitVec 256) (_ BitVec 256) Int) Int)
(declare-fun used_gas_s ((_ BitVec 256) (_ BitVec 256) Int) Int)
(assert
 (exists ((x_0 (_ BitVec 256)) (x_1 (_ BitVec 256)) )(let (($x7574 (forall ((w (_ BitVec 256)) )(let ((?x5319 (storage_t x_0 x_1 3 w)))
 (let ((?x3465 (storage_s x_0 x_1 6 w)))
 (= ?x3465 ?x5319))))
 ))
 (let (($x1941 (exc_halt_t 3)))
 (let (($x772 (exc_halt_s 6)))
 (let (($x4672 (= $x772 $x1941)))
 (let (($x4782 (forall ((n (_ BitVec 6)) )(let ((?x649 (sc_t 3)))
 (let (($x7652 (bvsle ?x649 n)))
 (let ((?x9470 (stack_t x_0 x_1 3 n)))
 (let ((?x7991 (stack_s x_0 x_1 6 n)))
 (let (($x661 (= ?x7991 ?x9470)))
 (or $x661 $x7652)))))))
 ))
 (let ((?x649 (sc_t 3)))
 (let ((?x926 (sc_s 6)))
 (let (($x8376 (= ?x926 ?x649)))
 (let ((?x3000 (used_gas_t x_0 x_1 0)))
 (let ((?x638 (used_gas_s x_0 x_1 0)))
 (let (($x2607 (= ?x638 ?x3000)))
 (let (($x2402 (forall ((w (_ BitVec 256)) )(let ((?x8549 (storage_t x_0 x_1 0 w)))
 (let ((?x26 (storage_s x_0 x_1 0 w)))
 (= ?x26 ?x8549))))
 ))
 (let (($x56 (exc_halt_t 0)))
 (let (($x57 (exc_halt_s 0)))
 (let (($x58 (= $x57 $x56)))
 (let (($x8412 (forall ((n (_ BitVec 6)) )(let ((?x916 (stack_t x_0 x_1 0 n)))
 (let ((?x8496 (stack_s x_0 x_1 0 n)))
 (let (($x1607 (= ?x8496 ?x916)))
 (let ((?x63 (sc_t 0)))
 (let (($x515 (bvsle ?x63 n)))
 (or $x515 $x1607)))))))
 ))
 (let ((?x63 (sc_t 0)))
 (let ((?x72 (sc_s 0)))
 (let (($x73 (= ?x72 ?x63)))
 (let (($x4610 (= $x1941 (or (exc_halt_t 2) (not (bvsle (_ bv0 6) (bvadd (_ bv63 6) (sc_t 2))))))))
 (let (($x4930 (forall ((w (_ BitVec 256)) )(let ((?x11631 (storage_t x_0 x_1 2 w)))
 (let ((?x5319 (storage_t x_0 x_1 3 w)))
 (= ?x5319 ?x11631))))
 ))
 (let (($x3201 (forall ((n (_ BitVec 6)) )(let ((?x4056 (sc_t 2)))
 (let ((?x4110 (bvadd (_ bv63 6) ?x4056)))
 (let (($x6024 (bvsle ?x4110 n)))
 (or $x6024 (= (stack_t x_0 x_1 3 n) (stack_t x_0 x_1 2 n)))))))
 ))
 (let ((?x4056 (sc_t 2)))
 (let (($x2320 (= ?x649 ?x4056)))
 (let (($x7421 (= (used_gas_t x_0 x_1 3) (+ 3 (used_gas_t x_0 x_1 2)))))
 (let (($x5365 (= (stack_t x_0 x_1 3 (bvadd (_ bv63 6) ?x649)) (ite (= (stack_t x_0 x_1 2 (bvadd (_ bv63 6) ?x4056)) (_ bv0 256)) (_ bv1 256) (_ bv0 256)))))
 (let (($x5051 (not (bvsle (_ bv0 6) (bvadd (_ bv63 6) (sc_t 1))))))
 (let (($x1920 (exc_halt_t 1)))
 (let (($x487 (not (= ((_ extract 6 6) (bvadd (_ bv1 7) (concat (_ bv0 1) (sc_t 1)))) (_ bv0 1)))))
 (let (($x903 (exc_halt_t 2)))
 (let (($x1110 (forall ((w (_ BitVec 256)) )(let ((?x10822 (storage_t x_0 x_1 1 w)))
 (let ((?x11631 (storage_t x_0 x_1 2 w)))
 (= ?x11631 ?x10822))))
 ))
 (let (($x8416 (forall ((n (_ BitVec 6)) )(let ((?x4023 (sc_t 1)))
 (let ((?x10675 (bvadd (_ bv63 6) ?x4023)))
 (let (($x2171 (bvsle ?x10675 n)))
 (or $x2171 (= (stack_t x_0 x_1 2 n) (stack_t x_0 x_1 1 n)))))))
 ))
 (let (($x7940 (= ?x4056 (bvadd (_ bv1 6) (sc_t 1)))))
 (let ((?x6839 (used_gas_t x_0 x_1 2)))
 (let ((?x4023 (sc_t 1)))
 (let ((?x10675 (bvadd (_ bv63 6) ?x4023)))
 (let ((?x4218 (stack_t x_0 x_1 1 ?x10675)))
 (let (($x9094 (= $x1920 (or $x56 (not (bvsle (_ bv0 6) (bvadd (_ bv63 6) ?x63)))))))
 (let (($x1452 (forall ((w (_ BitVec 256)) )(let ((?x8549 (storage_t x_0 x_1 0 w)))
 (let ((?x10822 (storage_t x_0 x_1 1 w)))
 (= ?x10822 ?x8549))))
 ))
 (let (($x1042 (forall ((n (_ BitVec 6)) )(let ((?x63 (sc_t 0)))
 (let ((?x3266 (bvadd (_ bv63 6) ?x63)))
 (let (($x7966 (bvsle ?x3266 n)))
 (or (= (stack_t x_0 x_1 1 n) (stack_t x_0 x_1 0 n)) $x7966)))))
 ))
 (let ((?x3266 (bvadd (_ bv63 6) ?x63)))
 (let (($x2707 (= ?x4023 ?x3266)))
 (let (($x7065 (= $x772 (or (exc_halt_s 5) (not (bvsle (_ bv0 6) (bvadd (_ bv62 6) (sc_s 5))))))))
 (let (($x6087 (forall ((w (_ BitVec 256)) )(let ((?x241 (storage_s x_0 x_1 5 w)))
 (let ((?x3465 (storage_s x_0 x_1 6 w)))
 (= ?x3465 ?x241))))
 ))
 (let (($x6832 (forall ((n (_ BitVec 6)) )(or (= (stack_s x_0 x_1 6 n) (stack_s x_0 x_1 5 n)) (bvsle (bvadd (_ bv62 6) (sc_s 5)) n)))
 ))
 (let ((?x805 (sc_s 5)))
 (let ((?x3307 (bvadd (_ bv63 6) ?x805)))
 (let (($x2003 (= ?x926 ?x3307)))
 (let (($x3042 (= (used_gas_s x_0 x_1 6) (+ 3 (used_gas_s x_0 x_1 5)))))
 (let ((?x8187 (stack_s x_0 x_1 5 ?x3307)))
 (let (($x7047 (= (stack_s x_0 x_1 6 (bvadd (_ bv63 6) ?x926)) (ite (= ?x8187 (stack_s x_0 x_1 5 (bvadd (_ bv62 6) ?x805))) (_ bv1 256) (_ bv0 256)))))
 (let (($x10611 (not (bvsle (_ bv0 6) (bvadd (_ bv62 6) (sc_s 4))))))
 (let (($x64 (exc_halt_s 4)))
 (let (($x1397 (or $x64 (not (= ((_ extract 6 6) (bvadd (_ bv1 7) (concat (_ bv0 1) (sc_s 4)))) (_ bv0 1))) $x10611)))
 (let (($x3979 (exc_halt_s 5)))
 (let (($x9008 (forall ((w (_ BitVec 256)) )(let ((?x8565 (storage_s x_0 x_1 4 w)))
 (let ((?x241 (storage_s x_0 x_1 5 w)))
 (= ?x241 ?x8565))))
 ))
 (let (($x6475 (forall ((n (_ BitVec 6)) )(let ((?x4305 (sc_s 4)))
 (let ((?x9342 (bvadd (_ bv62 6) ?x4305)))
 (let (($x6118 (bvsle ?x9342 n)))
 (or $x6118 (= (stack_s x_0 x_1 5 n) (stack_s x_0 x_1 4 n)))))))
 ))
 (let ((?x3506 (used_gas_s x_0 x_1 5)))
 (let ((?x4305 (sc_s 4)))
 (let ((?x4463 (bvadd (_ bv63 6) ?x4305)))
 (let ((?x10138 (stack_s x_0 x_1 4 ?x4463)))
 (let ((?x9342 (bvadd (_ bv62 6) ?x4305)))
 (let ((?x3679 (stack_s x_0 x_1 4 ?x9342)))
 (let (($x2389 (= $x64 (or (exc_halt_s 3) (not (bvsle (_ bv0 6) (bvadd (_ bv63 6) (sc_s 3))))))))
 (let (($x5540 (forall ((w (_ BitVec 256)) )(let ((?x660 (storage_s x_0 x_1 3 w)))
 (let ((?x8565 (storage_s x_0 x_1 4 w)))
 (= ?x8565 ?x660))))
 ))
 (let (($x1615 (forall ((n (_ BitVec 6)) )(let ((?x275 (sc_s 3)))
 (let ((?x7729 (bvadd (_ bv63 6) ?x275)))
 (let (($x9474 (bvsle ?x7729 n)))
 (or (= (stack_s x_0 x_1 4 n) (stack_s x_0 x_1 3 n)) $x9474)))))
 ))
 (let ((?x1816 (used_gas_s x_0 x_1 4)))
 (let (($x292 (exc_halt_s 3)))
 (let (($x2219 (= $x292 (or (exc_halt_s 2) (not (bvsle (_ bv0 6) (bvadd (_ bv63 6) (sc_s 2))))))))
 (let (($x2448 (forall ((w (_ BitVec 256)) )(let ((?x7027 (storage_s x_0 x_1 2 w)))
 (let ((?x660 (storage_s x_0 x_1 3 w)))
 (= ?x660 ?x7027))))
 ))
 (let (($x3088 (forall ((n (_ BitVec 6)) )(or (= (stack_s x_0 x_1 3 n) (stack_s x_0 x_1 2 n)) (bvsle (bvadd (_ bv63 6) (sc_s 2)) n)))
 ))
 (let ((?x218 (sc_s 2)))
 (let ((?x275 (sc_s 3)))
 (let (($x3321 (= ?x275 ?x218)))
 (let ((?x10278 (used_gas_s x_0 x_1 3)))
 (let ((?x7729 (bvadd (_ bv63 6) ?x275)))
 (let ((?x11193 (stack_s x_0 x_1 3 ?x7729)))
 (let (($x247 (exc_halt_s 2)))
 (let (($x481 (= $x247 (or (exc_halt_s 1) (not (bvsle (_ bv0 6) (bvadd (_ bv62 6) (sc_s 1))))))))
 (let (($x946 (forall ((w (_ BitVec 256)) )(let ((?x2517 (storage_s x_0 x_1 1 w)))
 (let ((?x7027 (storage_s x_0 x_1 2 w)))
 (= ?x7027 ?x2517))))
 ))
 (let (($x3511 (forall ((n (_ BitVec 6)) )(or (bvsle (bvadd (_ bv62 6) (sc_s 1)) n) (= (stack_s x_0 x_1 2 n) (stack_s x_0 x_1 1 n))))
 ))
 (let ((?x154 (sc_s 1)))
 (let ((?x4815 (bvadd (_ bv63 6) ?x154)))
 (let (($x4334 (= ?x218 ?x4815)))
 (let ((?x8478 (used_gas_s x_0 x_1 2)))
 (let ((?x5217 (bvor (bvnot (stack_s x_0 x_1 1 ?x4815)) (bvnot (stack_s x_0 x_1 1 (bvadd (_ bv62 6) ?x154))))))
 (let ((?x5628 (bvadd (_ bv63 6) ?x218)))
 (let ((?x5681 (stack_s x_0 x_1 2 ?x5628)))
 (let (($x189 (exc_halt_s 1)))
 (let (($x2279 (= $x189 (or $x57 (not (= ((_ extract 6 6) (bvadd (_ bv1 7) (concat (_ bv0 1) ?x72))) (_ bv0 1)))))))
 (let (($x11226 (forall ((w (_ BitVec 256)) )(let ((?x26 (storage_s x_0 x_1 0 w)))
 (let ((?x2517 (storage_s x_0 x_1 1 w)))
 (= ?x2517 ?x26))))
 ))
 (let (($x1577 (forall ((n (_ BitVec 6)) )(let ((?x72 (sc_s 0)))
 (let (($x2895 (bvsle ?x72 n)))
 (or $x2895 (= (stack_s x_0 x_1 1 n) (stack_s x_0 x_1 0 n))))))
 ))
 (let (($x1866 (= ?x154 (bvadd (_ bv1 6) ?x72))))
 (let (($x3959 (forall ((w (_ BitVec 256)) )(let ((?x26 (storage_s x_0 x_1 0 w)))
 (= ?x26 (_ bv0 256))))
 ))
 (let (($x3650 (= ?x638 0)))
 (let (($x2460 (not $x57)))
 (let (($x8268 (= (stack_s x_0 x_1 0 (_ bv1 6)) x_1)))
 (let (($x3263 (= (stack_s x_0 x_1 0 (_ bv0 6)) x_0)))
 (let (($x7626 (= ?x72 (_ bv2 6))))
 (and $x7626 $x3263 $x8268 $x2460 $x3650 $x3959 (= (stack_s x_0 x_1 1 ?x72) (_ bv0 256)) (= (used_gas_s x_0 x_1 1) (+ 3 ?x638)) $x1866 $x1577 $x11226 $x2279 (= ?x5681 (bvnot ?x5217)) (= ?x8478 (+ 3 (used_gas_s x_0 x_1 1))) $x4334 $x3511 $x946 $x481 (= ?x11193 (bvnot ?x5681)) (= ?x10278 (+ 3 ?x8478)) $x3321 $x3088 $x2448 $x2219 (= ?x10138 (bvnot ?x11193)) (= ?x1816 (+ 3 ?x10278)) (= ?x4305 ?x275) $x1615 $x5540 $x2389 (= ?x8187 ?x3679) (= (stack_s x_0 x_1 5 ?x9342) ?x3679) (= (stack_s x_0 x_1 5 ?x4463) ?x10138) (= ?x3506 (+ 3 ?x1816)) (= ?x805 (bvadd (_ bv1 6) ?x4305)) $x6475 $x9008 (= $x3979 $x1397) $x7047 $x3042 $x2003 $x6832 $x6087 $x7065 (= (used_gas_t x_0 x_1 1) (+ 2 ?x3000)) $x2707 $x1042 $x1452 $x9094 (= (stack_t x_0 x_1 2 (bvadd (_ bv63 6) ?x4056)) ?x4218) (= (stack_t x_0 x_1 2 ?x10675) ?x4218) (= ?x6839 (+ 3 (used_gas_t x_0 x_1 1))) $x7940 $x8416 $x1110 (= $x903 (or $x487 $x1920 $x5051)) $x5365 $x7421 $x2320 $x3201 $x4930 $x4610 $x73 $x8412 $x58 $x2402 $x2607 (not (and $x8376 $x4782 $x4672 $x7574)))))))))))))))))))))))))))))))))))))))))))))))))))))))))))))))))))))))))))))))))))))))))))))))))))))))
 )
(check-sat)
(get-proof)
